p cnf 113 9
-960 -1291 -1328 -1364 -1370 -1831 -1972 -2033 -2137 -2139 -2168 -2169 -2175 -2176 -2701 -2709 -2710 -3048 -3051 -3058 -3082 -3083 -3084 -3091 -3092 -3094 -3095 -3097 -3125 -3126 -3127 -3128 -3129 -3130 -3131 -3132 -3135 -3137 -3138 -3215 -3325 -3383 -3441 -3442 -3446 -3448 -3449 -3450 -3577 -3581 -3582 -3661 -3721 -3729 -3933 -3939 -3940 -4154 -4158 -4159 -4261 -4262 -4267 -4271 -4439 -4445 -4446 -4567 -4570 -4618 -4821 -4829 -4830 -5070 -5071 -5072 -5073 -5074 -5081 -5082 -5130 -5132 -5270 -5295 -5582 -5588 -5589 -5975 -5981 -5982 -6104 -6275 -6314 -6348 -6356 -6359 -6388 0
-960 -1291 -1328 -1364 -1370 -1831 -1972 -2033 -2137 -2139 -2168 -2169 -2175 -2176 -2701 -2709 -2710 -3048 -3051 -3058 -3082 -3083 -3084 -3091 -3092 -3094 -3095 -3097 -3125 -3126 -3127 -3128 -3129 -3130 -3131 -3132 -3135 -3137 -3138 -3215 -3325 -3383 -3441 -3442 -3446 -3447 -3448 -3449 -3450 -3577 -3581 -3582 -3661 -3721 -3729 -3933 -3939 -3940 -4154 -4158 -4159 -4261 -4262 -4267 -4271 -4439 -4445 -4446 -4570 -4618 -4821 -4829 -4830 -5070 -5071 -5073 -5074 -5081 -5082 -5130 -5132 -5270 -5295 -5582 -5588 -5589 -5975 -5981 -5982 -6104 -6275 -6314 -6356 -6359 -6388 0
-1291 -1295 -1339 -1372 -3058 -3104 -3119 -6380 0
-1291 -1295 -1339 -1372 -3058 -3093 -3119 -4229 -4235 -5043 0
-1291 -1295 -1339 -3058 -3093 -3119 -3132 -4229 -4235 -5043 0
-1291 -1295 -1314 -1339 -3058 -3119 -4559 -5356 0
-1291 -1295 -1314 -1339 -3058 -3119 -4559 -4561 0
-20 -1291 -1295 -1339 -3058 -3119 -4559 -5356 0
-20 -1291 -1295 -1339 -3058 -3119 -4559 -4561 0
